113
0 82 76 57 72 87 41 27 10 62 
53 42 33 21 55 98 59 12 109 45 
71 19 103 28 107 51 95 2 97 22 
31 34 35 7 80 84 73 89 20 91 
66 79 106 74 96 86 56 30 94 61 
83 100 99 102 50 24 37 6 29 54 
68 88 63 112 32 67 44 101 5 25 
36 4 64 46 77 111 70 11 60 26 
48 93 1 3 9 108 23 69 92 110 
39 85 58 52 78 13 75 90 43 16 
18 17 81 15 49 40 47 8 38 14 
65 104 105 
